
Gurobi 8.1.0 (linux64, Python) logging started Fri Jul 19 13:36:09 2019

Academic license - for non-commercial use only
Optimize a model with 1648 rows, 59585 columns and 349033 nonzeros
Coefficient statistics:
  Matrix range     [7e-05, 4e+02]
  Objective range  [7e-05, 2e+03]
  Bounds range     [0e+00, 0e+00]
  RHS range        [1e+00, 3e+04]

Concurrent LP optimizer: dual simplex and barrier
Showing barrier log only...

Presolve time: 0.09s
Presolved: 1648 rows, 59585 columns, 349033 nonzeros

Ordering time: 0.00s

Barrier statistics:
 Dense cols : 1
 AA' NZ     : 1.257e+05
 Factor NZ  : 1.323e+05 (roughly 26 MBytes of memory)
 Factor Ops : 1.082e+07 (less than 1 second per iteration)
 Threads    : 1

                  Objective                Residual
Iter       Primal          Dual         Primal    Dual     Compl     Time
   0   4.89547312e+07  1.15158652e+04  3.19e+06 8.55e+01  1.04e+05     0s
   1   3.73358764e+07  3.10127559e+05  2.45e+06 3.35e+02  8.07e+04     0s
   2   8.18587422e+06  6.03799820e+05  5.32e+05 1.46e+02  1.81e+04     0s
   3   5.65753533e+05  8.28880278e+05  3.56e+04 3.84e+01  1.23e+03     0s
   4   9.80691739e+04  7.89489125e+05  5.68e+03 5.88e+00  2.04e+02     0s
   5   3.25260878e+04  7.12697289e+05  1.55e+03 4.18e+00  6.35e+01     0s
   6   2.05373174e+04  5.37007306e+05  7.68e+02 1.80e+00  3.26e+01     0s
   7   1.40352677e+04  4.12669823e+05  3.50e+02 8.98e-01  1.60e+01     0s
   8   1.02529943e+04  2.16339935e+05  9.74e+01 2.21e-01  4.98e+00     0s
   9   9.88482585e+03  1.18716824e+05  2.81e+01 8.96e-02  2.06e+00     0s
  10   1.03654963e+04  9.39286007e+04  1.96e+01 6.67e-02  1.52e+00     0s
  11   1.08812699e+04  5.26564993e+04  1.11e+01 3.02e-02  7.34e-01     0s
  12   1.15549235e+04  3.69114632e+04  7.29e+00 1.75e-02  4.38e-01     0s
  13   1.23193788e+04  2.75121267e+04  4.66e+00 9.93e-03  2.59e-01     0s
  14   1.29444268e+04  2.48886293e+04  3.13e+00 7.85e-03  2.02e-01     0s
  15   1.32656373e+04  2.22996014e+04  2.46e+00 5.80e-03  1.53e-01     1s
  16   1.38660558e+04  1.99474774e+04  1.32e+00 3.90e-03  1.02e-01     1s
  17   1.39397849e+04  1.94569941e+04  1.21e+00 3.51e-03  9.26e-02     1s
  18   1.40483063e+04  1.89444598e+04  9.15e-01 3.11e-03  8.21e-02     1s
  19   1.41964210e+04  1.80087604e+04  6.15e-01 2.40e-03  6.38e-02     1s
  20   1.43582854e+04  1.72137931e+04  2.25e-03 1.79e-03  4.78e-02     1s
  21   1.44584796e+04  1.68745432e+04  1.94e-03 1.49e-03  4.04e-02     1s
  22   1.45614283e+04  1.65219396e+04  1.57e-03 1.16e-03  3.28e-02     1s
  23   1.47840424e+04  1.62067629e+04  9.42e-04 8.37e-04  2.37e-02     1s
  24   1.49790731e+04  1.60711071e+04  5.92e-04 6.65e-04  1.82e-02     1s
  25   1.51361473e+04  1.59288466e+04  3.72e-04 4.95e-04  1.32e-02     1s
  26   1.51816803e+04  1.58767035e+04  3.25e-04 4.08e-04  1.16e-02     1s
  27   1.52741244e+04  1.58144556e+04  2.47e-04 3.19e-04  9.00e-03     1s
  28   1.53448712e+04  1.57845614e+04  1.90e-04 2.63e-04  7.32e-03     1s
  29   1.54036595e+04  1.57312079e+04  1.49e-04 1.71e-04  5.45e-03     1s
  30   1.54322527e+04  1.57231643e+04  1.32e-04 1.51e-04  4.84e-03     1s
  31   1.54404939e+04  1.57199414e+04  1.27e-04 1.41e-04  4.65e-03     1s
  32   1.54708403e+04  1.57016545e+04  1.09e-04 9.02e-05  3.84e-03     1s
  33   1.55226615e+04  1.56957941e+04  7.85e-05 7.42e-05  2.88e-03     1s
  34   1.55455969e+04  1.56883840e+04  6.51e-05 5.59e-05  2.38e-03     1s
  35   1.55665094e+04  1.56855882e+04  5.36e-05 4.96e-05  1.98e-03     1s
  36   1.55695700e+04  1.56845598e+04  5.19e-05 4.67e-05  1.91e-03     1s
  37   1.55755161e+04  1.56836673e+04  4.85e-05 4.41e-05  1.80e-03     1s
  38   1.55934942e+04  1.56797217e+04  3.88e-05 3.25e-05  1.43e-03     1s
  39   1.56052643e+04  1.56773434e+04  3.28e-05 2.29e-05  1.20e-03     1s
  40   1.56132668e+04  1.56751268e+04  2.87e-05 1.49e-05  1.03e-03     1s
  41   1.56199075e+04  1.56748521e+04  2.53e-05 1.33e-05  9.14e-04     1s
  42   1.56295662e+04  1.56738567e+04  2.06e-05 8.63e-06  7.37e-04     1s
  43   1.56435453e+04  1.56734538e+04  1.36e-05 6.57e-06  4.97e-04     1s
  44   1.56458217e+04  1.56731281e+04  1.25e-05 5.17e-06  4.54e-04     1s
  45   1.56503771e+04  1.56729776e+04  1.03e-05 4.53e-06  3.76e-04     1s
  46   1.56530903e+04  1.56727880e+04  8.99e-06 3.86e-06  3.28e-04     1s
  47   1.56558919e+04  1.56726840e+04  7.60e-06 3.38e-06  2.79e-04     1s
  48   1.56590806e+04  1.56725718e+04  5.99e-06 2.93e-06  2.24e-04     1s
  49   1.56670317e+04  1.56723987e+04  2.20e-06 2.01e-06  8.93e-05     1s
  50   1.56676755e+04  1.56722734e+04  1.89e-06 1.48e-06  7.65e-05     1s
  51   1.56681482e+04  1.56721516e+04  1.67e-06 9.29e-07  6.66e-05     1s
  52   1.56695143e+04  1.56721457e+04  1.07e-06 9.02e-07  4.38e-05     1s
  53   1.56700223e+04  1.56720935e+04  8.46e-07 6.53e-07  3.44e-05     1s
  54   1.56715147e+04  1.56719977e+04  1.85e-07 1.93e-07  8.03e-06     1s
  55   1.56718717e+04  1.56719578e+04  2.14e-08 4.55e-09  1.43e-06     2s
  56   1.56719538e+04  1.56719556e+04  6.00e-11 2.98e-12  1.95e-08     2s
  57   1.56719556e+04  1.56719556e+04  3.82e-11 1.01e-12  2.60e-11     2s

Barrier solved model in 57 iterations and 1.57 seconds
Optimal objective 1.56719556e+04

Crossover log...

       0 DPushes remaining with DInf 1.8642657e-12                 2s

       3 PPushes remaining with PInf 0.0000000e+00                 2s
       0 PPushes remaining with PInf 0.0000000e+00                 2s

  Push phase complete: Pinf 0.0000000e+00, Dinf 3.0133188e-13      2s

Iteration    Objective       Primal Inf.    Dual Inf.      Time
      24    1.5671956e+04   0.000000e+00   0.000000e+00      2s

Solved with barrier
Solved in 24 iterations and 1.61 seconds
Optimal objective  1.567195559e+04
Optimize a model with 1648 rows, 60369 columns and 401772 nonzeros
Coefficient statistics:
  Matrix range     [3e-05, 4e+03]
  Objective range  [7e-05, 2e+03]
  Bounds range     [0e+00, 0e+00]
  RHS range        [1e+00, 3e+04]
Iteration    Objective       Primal Inf.    Dual Inf.      Time
       0    2.2353498e+33   1.543592e+33   2.235350e+03      0s
    1875    1.8935203e+04   0.000000e+00   0.000000e+00      1s

Solved in 1875 iterations and 0.90 seconds
Optimal objective  1.893520253e+04
Optimize a model with 1648 rows, 61153 columns and 413856 nonzeros
Coefficient statistics:
  Matrix range     [2e-05, 4e+03]
  Objective range  [7e-05, 2e+03]
  Bounds range     [0e+00, 0e+00]
  RHS range        [1e+00, 3e+04]
Iteration    Objective       Primal Inf.    Dual Inf.      Time
       0    8.0097734e+33   3.192902e+33   8.009773e+03      0s
    4998    2.3037860e+04   0.000000e+00   0.000000e+00      4s

Solved in 4998 iterations and 3.61 seconds
Optimal objective  2.303785984e+04
Optimize a model with 1648 rows, 61934 columns and 429824 nonzeros
Coefficient statistics:
  Matrix range     [2e-05, 4e+03]
  Objective range  [7e-05, 2e+03]
  Bounds range     [0e+00, 0e+00]
  RHS range        [1e+00, 3e+04]
Iteration    Objective       Primal Inf.    Dual Inf.      Time
       0    5.5976304e+33   2.414171e+33   5.597630e+03      0s
    6043    2.4564058e+04   0.000000e+00   0.000000e+00      5s

Solved in 6043 iterations and 4.87 seconds
Optimal objective  2.456405755e+04
Optimize a model with 1648 rows, 62714 columns and 444610 nonzeros
Coefficient statistics:
  Matrix range     [2e-05, 4e+03]
  Objective range  [7e-05, 2e+03]
  Bounds range     [0e+00, 0e+00]
  RHS range        [1e+00, 3e+04]
Iteration    Objective       Primal Inf.    Dual Inf.      Time
       0    4.8214527e+33   4.806304e+33   4.821453e+03      0s
    6261    2.5871506e+04   2.913375e+03   0.000000e+00      5s
    6913    2.5818640e+04   0.000000e+00   0.000000e+00      6s

Solved in 6913 iterations and 5.92 seconds
Optimal objective  2.581863958e+04
Optimize a model with 1648 rows, 63498 columns and 455558 nonzeros
Coefficient statistics:
  Matrix range     [2e-05, 4e+03]
  Objective range  [7e-05, 2e+03]
  Bounds range     [0e+00, 0e+00]
  RHS range        [1e+00, 3e+04]
Iteration    Objective       Primal Inf.    Dual Inf.      Time
       0    3.8073319e+33   1.178613e+34   3.807332e+03      0s
    5077    2.6530076e+04   0.000000e+00   0.000000e+00      4s

Solved in 5077 iterations and 4.02 seconds
Optimal objective  2.653007574e+04
Optimize a model with 1648 rows, 64282 columns and 467812 nonzeros
Coefficient statistics:
  Matrix range     [2e-05, 4e+03]
  Objective range  [7e-05, 2e+03]
  Bounds range     [0e+00, 0e+00]
  RHS range        [1e+00, 3e+04]
Iteration    Objective       Primal Inf.    Dual Inf.      Time
       0    2.5386886e+33   4.332348e+33   2.538689e+03      0s
Warning: 1 variables dropped from basis
Warning: switch to quad precision
    4700    2.6880078e+04   8.052519e+04   0.000000e+00      5s
    5682    2.6810279e+04   0.000000e+00   0.000000e+00      7s

Solved in 5682 iterations and 7.29 seconds
Optimal objective  2.681027950e+04
Optimize a model with 1648 rows, 65063 columns and 478855 nonzeros
Coefficient statistics:
  Matrix range     [2e-05, 4e+03]
  Objective range  [7e-05, 2e+03]
  Bounds range     [0e+00, 0e+00]
  RHS range        [1e+00, 3e+04]
Iteration    Objective       Primal Inf.    Dual Inf.      Time
       0    1.6261013e+33   9.915876e+33   1.626101e+03      0s
    4725    2.6990194e+04   0.000000e+00   0.000000e+00      4s

Solved in 4725 iterations and 3.81 seconds
Optimal objective  2.699019388e+04
Optimize a model with 1648 rows, 65830 columns and 489194 nonzeros
Coefficient statistics:
  Matrix range     [2e-05, 4e+03]
  Objective range  [7e-05, 2e+03]
  Bounds range     [0e+00, 0e+00]
  RHS range        [1e+00, 3e+04]
Iteration    Objective       Primal Inf.    Dual Inf.      Time
       0    1.2163235e+33   1.064305e+34   1.216324e+03      0s
    5772    2.7117423e+04   0.000000e+00   0.000000e+00      5s

Solved in 5772 iterations and 4.92 seconds
Optimal objective  2.711742255e+04
Optimize a model with 1648 rows, 66587 columns and 499830 nonzeros
Coefficient statistics:
  Matrix range     [2e-05, 4e+03]
  Objective range  [7e-05, 2e+03]
  Bounds range     [0e+00, 0e+00]
  RHS range        [1e+00, 3e+04]
Iteration    Objective       Primal Inf.    Dual Inf.      Time
       0    6.0564980e+32   4.844255e+33   6.056498e+02      0s
    4454    2.7197123e+04   0.000000e+00   0.000000e+00      4s

Solved in 4454 iterations and 3.52 seconds
Optimal objective  2.719712338e+04
Optimize a model with 1648 rows, 67318 columns and 510259 nonzeros
Coefficient statistics:
  Matrix range     [2e-05, 4e+03]
  Objective range  [7e-05, 2e+03]
  Bounds range     [0e+00, 0e+00]
  RHS range        [1e+00, 3e+04]
Iteration    Objective       Primal Inf.    Dual Inf.      Time
       0    2.7659357e+32   3.487435e+33   2.765936e+02      0s
    5973    2.7265521e+04   6.171363e+02   0.000000e+00      5s
    6339    2.7262956e+04   0.000000e+00   0.000000e+00      5s

Solved in 6339 iterations and 5.41 seconds
Optimal objective  2.726295626e+04
Optimize a model with 1648 rows, 68042 columns and 521169 nonzeros
Coefficient statistics:
  Matrix range     [2e-05, 4e+03]
  Objective range  [7e-05, 2e+03]
  Bounds range     [0e+00, 0e+00]
  RHS range        [1e+00, 3e+04]
Iteration    Objective       Primal Inf.    Dual Inf.      Time
       0    1.3230344e+32   1.320143e+34   1.323034e+02      0s
    4661    2.7299737e+04   0.000000e+00   0.000000e+00      3s

Solved in 4661 iterations and 3.19 seconds
Optimal objective  2.729973722e+04
Optimize a model with 1648 rows, 68734 columns and 532144 nonzeros
Coefficient statistics:
  Matrix range     [2e-05, 4e+03]
  Objective range  [7e-05, 2e+03]
  Bounds range     [0e+00, 0e+00]
  RHS range        [1e+00, 3e+04]
Iteration    Objective       Primal Inf.    Dual Inf.      Time
       0    9.4376115e+31   9.898526e+33   9.437612e+01      0s
    3868    2.7319708e+04   0.000000e+00   0.000000e+00      3s

Solved in 3868 iterations and 2.85 seconds
Optimal objective  2.731970786e+04
Optimize a model with 1648 rows, 69431 columns and 542924 nonzeros
Coefficient statistics:
  Matrix range     [2e-05, 4e+03]
  Objective range  [7e-05, 2e+03]
  Bounds range     [0e+00, 0e+00]
  RHS range        [1e+00, 3e+04]
Iteration    Objective       Primal Inf.    Dual Inf.      Time
       0    4.8086418e+31   2.834962e+33   4.808642e+01      0s
    2999    2.7330621e+04   0.000000e+00   0.000000e+00      2s

Solved in 2999 iterations and 2.01 seconds
Optimal objective  2.733062112e+04
Optimize a model with 1648 rows, 70081 columns and 552835 nonzeros
Coefficient statistics:
  Matrix range     [2e-05, 4e+03]
  Objective range  [7e-05, 2e+03]
  Bounds range     [0e+00, 0e+00]
  RHS range        [1e+00, 3e+04]
Iteration    Objective       Primal Inf.    Dual Inf.      Time
       0    2.2176103e+31   2.780303e+33   2.217610e+01      0s
    2775    2.7336874e+04   0.000000e+00   0.000000e+00      2s

Solved in 2775 iterations and 1.84 seconds
Optimal objective  2.733687406e+04
Optimize a model with 1648 rows, 70693 columns and 562570 nonzeros
Coefficient statistics:
  Matrix range     [2e-05, 4e+03]
  Objective range  [7e-05, 2e+03]
  Bounds range     [0e+00, 0e+00]
  RHS range        [1e+00, 3e+04]
Iteration    Objective       Primal Inf.    Dual Inf.      Time
       0    1.0913907e+31   1.066901e+33   1.091391e+01      0s
    1841    2.7340142e+04   0.000000e+00   0.000000e+00      1s

Solved in 1841 iterations and 1.33 seconds
Optimal objective  2.734014206e+04
Optimize a model with 1648 rows, 71269 columns and 571274 nonzeros
Coefficient statistics:
  Matrix range     [2e-05, 4e+03]
  Objective range  [7e-05, 2e+03]
  Bounds range     [0e+00, 0e+00]
  RHS range        [1e+00, 3e+04]
Iteration    Objective       Primal Inf.    Dual Inf.      Time
       0    4.7350374e+30   8.616024e+32   4.735037e+00      0s
    1216    2.7341968e+04   0.000000e+00   0.000000e+00      1s

Solved in 1216 iterations and 0.84 seconds
Optimal objective  2.734196797e+04
Optimize a model with 1648 rows, 71794 columns and 579015 nonzeros
Coefficient statistics:
  Matrix range     [2e-05, 4e+03]
  Objective range  [7e-05, 2e+03]
  Bounds range     [0e+00, 0e+00]
  RHS range        [1e+00, 3e+04]
Iteration    Objective       Primal Inf.    Dual Inf.      Time
       0    1.0256708e+30   4.850284e+32   1.025671e+00      0s
     799    2.7342363e+04   0.000000e+00   0.000000e+00      1s

Solved in 799 iterations and 0.68 seconds
Optimal objective  2.734236308e+04
Optimize a model with 1648 rows, 72289 columns and 586192 nonzeros
Coefficient statistics:
  Matrix range     [2e-05, 4e+03]
  Objective range  [7e-05, 2e+03]
  Bounds range     [0e+00, 0e+00]
  RHS range        [1e+00, 3e+04]
Iteration    Objective       Primal Inf.    Dual Inf.      Time
       0    1.6656942e+29   2.081316e+32   1.665694e-01      0s
     285    2.7342438e+04   0.000000e+00   0.000000e+00      0s

Solved in 285 iterations and 0.26 seconds
Optimal objective  2.734243814e+04
Optimize a model with 1648 rows, 72769 columns and 593134 nonzeros
Coefficient statistics:
  Matrix range     [2e-05, 4e+03]
  Objective range  [7e-05, 2e+03]
  Bounds range     [0e+00, 0e+00]
  RHS range        [1e+00, 3e+04]
Iteration    Objective       Primal Inf.    Dual Inf.      Time
       0    1.2586843e+28   7.863543e+31   1.258684e-02      0s
     145    2.7342442e+04   0.000000e+00   0.000000e+00      0s

Solved in 145 iterations and 0.20 seconds
Optimal objective  2.734244219e+04
Optimize a model with 1648 rows, 73228 columns and 599856 nonzeros
Coefficient statistics:
  Matrix range     [2e-05, 4e+03]
  Objective range  [7e-05, 2e+03]
  Bounds range     [0e+00, 0e+00]
  RHS range        [1e+00, 3e+04]
Iteration    Objective       Primal Inf.    Dual Inf.      Time
       0    3.0944860e+26   9.878718e+30   3.094486e-04      0s
      10    2.7342442e+04   0.000000e+00   0.000000e+00      0s

Solved in 10 iterations and 0.06 seconds
Optimal objective  2.734244229e+04
Optimize a model with 1648 rows, 9982 columns and 37843 nonzeros
Coefficient statistics:
  Matrix range     [7e-03, 3e+02]
  Objective range  [2e-03, 2e+03]
  Bounds range     [0e+00, 0e+00]
  RHS range        [1e+00, 3e+03]

Concurrent LP optimizer: dual simplex and barrier
Showing barrier log only...

Presolve removed 2 rows and 0 columns
Presolve time: 0.01s
Presolved: 1646 rows, 9982 columns, 37843 nonzeros

Ordering time: 0.00s

Barrier statistics:
 Dense cols : 1
 AA' NZ     : 2.317e+04
 Factor NZ  : 2.949e+04 (roughly 5 MBytes of memory)
 Factor Ops : 6.443e+05 (less than 1 second per iteration)
 Threads    : 1

                  Objective                Residual
Iter       Primal          Dual         Primal    Dual     Compl     Time
   0   1.29890864e+06  1.28380462e+04  3.19e+04 4.53e+01  7.89e+03     0s
   1   8.60075796e+05  2.83251181e+05  2.17e+04 2.22e+02  5.40e+03     0s
   2   3.49144054e+05  7.12887210e+05  8.43e+03 0.00e+00  2.32e+03     0s
   3   2.15999155e+04  6.15131345e+05  3.18e+02 0.00e+00  1.37e+02     0s

Barrier performed 3 iterations in 0.03 seconds
Barrier solve interrupted - model solved by another algorithm


Solved with dual simplex
Solved in 892 iterations and 0.03 seconds
Optimal objective  1.559661452e+04
Optimize a model with 1648 rows, 10766 columns and 50095 nonzeros
Coefficient statistics:
  Matrix range     [6e-04, 3e+02]
  Objective range  [2e-03, 2e+03]
  Bounds range     [0e+00, 0e+00]
  RHS range        [1e+00, 3e+03]
Iteration    Objective       Primal Inf.    Dual Inf.      Time
       0    6.0610802e+33   2.524687e+33   6.061080e+03      0s
    4288    2.2064612e+04   0.000000e+00   0.000000e+00      1s

Solved in 4288 iterations and 0.50 seconds
Optimal objective  2.206461250e+04
Optimize a model with 1648 rows, 11534 columns and 59737 nonzeros
Coefficient statistics:
  Matrix range     [2e-05, 3e+02]
  Objective range  [2e-03, 2e+03]
  Bounds range     [0e+00, 0e+00]
  RHS range        [1e+00, 3e+03]
Iteration    Objective       Primal Inf.    Dual Inf.      Time
       0    7.4621355e+33   5.993749e+33   7.462136e+03      0s
    8114    2.5738087e+04   0.000000e+00   0.000000e+00      1s

Solved in 8114 iterations and 1.13 seconds
Optimal objective  2.573808684e+04
Optimize a model with 1648 rows, 12297 columns and 68823 nonzeros
Coefficient statistics:
  Matrix range     [2e-05, 3e+02]
  Objective range  [2e-03, 2e+03]
  Bounds range     [0e+00, 0e+00]
  RHS range        [1e+00, 3e+03]
Iteration    Objective       Primal Inf.    Dual Inf.      Time
       0    3.9007608e+33   6.709435e+33   3.900761e+03      0s
    6725    2.6932498e+04   0.000000e+00   0.000000e+00      1s

Solved in 6725 iterations and 1.13 seconds
Optimal objective  2.693249796e+04
Optimize a model with 1648 rows, 13032 columns and 76747 nonzeros
Coefficient statistics:
  Matrix range     [2e-05, 3e+02]
  Objective range  [2e-03, 2e+03]
  Bounds range     [0e+00, 0e+00]
  RHS range        [1e+00, 3e+03]
Iteration    Objective       Primal Inf.    Dual Inf.      Time
       0    2.0982139e+33   4.565122e+33   2.098214e+03      0s
    4960    2.7157829e+04   0.000000e+00   0.000000e+00      1s

Solved in 4960 iterations and 0.93 seconds
Optimal objective  2.715782908e+04
Optimize a model with 1648 rows, 13730 columns and 83519 nonzeros
Coefficient statistics:
  Matrix range     [2e-05, 3e+02]
  Objective range  [2e-03, 2e+03]
  Bounds range     [0e+00, 0e+00]
  RHS range        [1e+00, 3e+03]
Iteration    Objective       Primal Inf.    Dual Inf.      Time
       0    1.4374150e+33   2.565999e+34   1.437415e+03      0s
    4116    2.7267922e+04   0.000000e+00   0.000000e+00      1s

Solved in 4116 iterations and 0.64 seconds
Optimal objective  2.726792190e+04
Optimize a model with 1648 rows, 14426 columns and 91636 nonzeros
Coefficient statistics:
  Matrix range     [2e-05, 3e+02]
  Objective range  [2e-03, 2e+03]
  Bounds range     [0e+00, 0e+00]
  RHS range        [1e+00, 3e+03]
Iteration    Objective       Primal Inf.    Dual Inf.      Time
       0    8.3854072e+32   3.468491e+33   8.385407e+02      0s
    2657    2.7354740e+04   0.000000e+00   0.000000e+00      1s

Solved in 2657 iterations and 0.53 seconds
Optimal objective  2.735473982e+04
Optimize a model with 1648 rows, 15069 columns and 99464 nonzeros
Coefficient statistics:
  Matrix range     [2e-05, 3e+02]
  Objective range  [2e-03, 2e+03]
  Bounds range     [0e+00, 0e+00]
  RHS range        [1e+00, 3e+03]
Iteration    Objective       Primal Inf.    Dual Inf.      Time
       0    4.3064646e+32   7.296058e+33   4.306465e+02      0s
    3594    2.7418888e+04   0.000000e+00   0.000000e+00      1s

Solved in 3594 iterations and 0.70 seconds
Optimal objective  2.741888783e+04
Optimize a model with 1648 rows, 15677 columns and 106339 nonzeros
Coefficient statistics:
  Matrix range     [2e-05, 3e+02]
  Objective range  [2e-03, 2e+03]
  Bounds range     [0e+00, 0e+00]
  RHS range        [1e+00, 3e+03]
Iteration    Objective       Primal Inf.    Dual Inf.      Time
       0    7.1666588e+31   1.199326e+34   7.166659e+01      0s
    1624    2.7424929e+04   0.000000e+00   0.000000e+00      0s

Solved in 1624 iterations and 0.36 seconds
Optimal objective  2.742492867e+04
Optimize a model with 1648 rows, 16239 columns and 113068 nonzeros
Coefficient statistics:
  Matrix range     [2e-05, 3e+02]
  Objective range  [2e-03, 2e+03]
  Bounds range     [0e+00, 0e+00]
  RHS range        [1e+00, 3e+03]
Iteration    Objective       Primal Inf.    Dual Inf.      Time
       0    1.5344921e+31   1.035604e+33   1.534492e+01      0s
    1312    2.7428727e+04   0.000000e+00   0.000000e+00      0s

Solved in 1312 iterations and 0.29 seconds
Optimal objective  2.742872724e+04
Optimize a model with 1648 rows, 16772 columns and 119360 nonzeros
Coefficient statistics:
  Matrix range     [2e-05, 3e+02]
  Objective range  [2e-03, 2e+03]
  Bounds range     [0e+00, 0e+00]
  RHS range        [1e+00, 3e+03]
Iteration    Objective       Primal Inf.    Dual Inf.      Time
       0    2.4565845e+30   4.332624e+32   2.456585e+00      0s
     656    2.7429333e+04   0.000000e+00   0.000000e+00      0s

Solved in 656 iterations and 0.16 seconds
Optimal objective  2.742933322e+04
Optimize a model with 1648 rows, 17271 columns and 125244 nonzeros
Coefficient statistics:
  Matrix range     [2e-05, 3e+02]
  Objective range  [2e-03, 2e+03]
  Bounds range     [0e+00, 0e+00]
  RHS range        [1e+00, 3e+03]
Iteration    Objective       Primal Inf.    Dual Inf.      Time
       0    6.9554001e+29   1.206514e+32   6.955400e-01      0s
     504    2.7429467e+04   0.000000e+00   0.000000e+00      0s

Solved in 504 iterations and 0.15 seconds
Optimal objective  2.742946703e+04
Optimize a model with 1648 rows, 17753 columns and 130973 nonzeros
Coefficient statistics:
  Matrix range     [2e-05, 3e+02]
  Objective range  [2e-03, 2e+03]
  Bounds range     [0e+00, 0e+00]
  RHS range        [1e+00, 3e+03]
Iteration    Objective       Primal Inf.    Dual Inf.      Time
       0    9.1213323e+28   3.331682e+31   9.121332e-02      0s
     168    2.7429520e+04   0.000000e+00   0.000000e+00      0s

Solved in 168 iterations and 0.06 seconds
Optimal objective  2.742952009e+04
Optimize a model with 1648 rows, 18245 columns and 136820 nonzeros
Coefficient statistics:
  Matrix range     [2e-05, 3e+02]
  Objective range  [2e-03, 2e+03]
  Bounds range     [0e+00, 0e+00]
  RHS range        [1e+00, 3e+03]
Iteration    Objective       Primal Inf.    Dual Inf.      Time
       0    3.7792702e+27   8.376901e+30   3.779270e-03      0s
      17    2.7429522e+04   0.000000e+00   0.000000e+00      0s

Solved in 17 iterations and 0.03 seconds
Optimal objective  2.742952218e+04
Optimize a model with 1648 rows, 59585 columns and 349033 nonzeros
Coefficient statistics:
  Matrix range     [7e-05, 4e+02]
  Objective range  [7e-05, 2e+03]
  Bounds range     [0e+00, 0e+00]
  RHS range        [1e+00, 4e+04]

Concurrent LP optimizer: dual simplex and barrier
Showing barrier log only...

Presolve time: 0.09s
Presolved: 1648 rows, 59585 columns, 349033 nonzeros

Ordering time: 0.00s

Barrier statistics:
 Dense cols : 1
 AA' NZ     : 1.257e+05
 Factor NZ  : 1.323e+05 (roughly 26 MBytes of memory)
 Factor Ops : 1.082e+07 (less than 1 second per iteration)
 Threads    : 1

                  Objective                Residual
Iter       Primal          Dual         Primal    Dual     Compl     Time
   0   5.44951385e+07  1.10045043e+04  3.55e+06 8.55e+01  1.15e+05     0s
   1   4.15638546e+07  3.00043192e+05  2.73e+06 3.35e+02  8.98e+04     0s
   2   9.07952098e+06  5.77023546e+05  5.90e+05 1.39e+02  2.01e+04     0s
   3   7.24913041e+05  9.48574305e+05  4.59e+04 2.30e+01  1.59e+03     0s
   4   4.29879859e+04  8.43052998e+05  2.18e+03 6.98e-02  8.87e+01     0s
   5   2.74994291e+04  7.51031338e+05  1.11e+03 5.18e-02  5.18e+01     0s
   6   1.31889627e+04  5.37833311e+05  3.04e+02 2.26e-02  1.78e+01     0s
   7   1.20002879e+04  3.34736767e+05  2.29e+02 1.00e-02  1.01e+01     0s
   8   9.44023031e+03  1.54235605e+05  5.28e+01 2.40e-03  2.96e+00     0s
   9   9.51924303e+03  1.00787250e+05  2.59e+01 1.34e-03  1.70e+00     0s
  10   1.01202427e+04  7.15378623e+04  1.52e+01 8.55e-04  1.10e+00     0s
  11   1.09392367e+04  4.57197102e+04  7.62e+00 4.48e-04  6.01e-01     0s
  12   1.17853557e+04  3.18987842e+04  3.25e+00 2.47e-04  3.42e-01     0s
  13   1.25594157e+04  2.52143175e+04  4.20e-01 1.48e-04  2.13e-01     0s
  14   1.27403679e+04  2.38363912e+04  8.72e-03 1.28e-04  1.86e-01     0s
  15   1.30152414e+04  2.12162526e+04  7.13e-03 8.90e-05  1.37e-01     1s
  16   1.35685283e+04  2.00928439e+04  4.56e-03 6.74e-05  1.09e-01     1s
  17   1.38992569e+04  1.88765781e+04  3.44e-03 4.84e-05  8.30e-02     1s
  18   1.40348987e+04  1.84501376e+04  3.02e-03 4.24e-05  7.36e-02     1s
  19   1.43199257e+04  1.75702353e+04  2.12e-03 3.08e-05  5.42e-02     1s
  20   1.45555673e+04  1.68789161e+04  1.33e-03 2.20e-05  3.87e-02     1s
  21   1.47037198e+04  1.63685591e+04  1.03e-03 1.46e-05  2.77e-02     1s
  22   1.48893446e+04  1.61896369e+04  7.47e-04 1.09e-05  2.16e-02     1s
  23   1.50498023e+04  1.59519556e+04  5.35e-04 7.11e-06  1.50e-02     1s
  24   1.52284565e+04  1.58655347e+04  3.11e-04 4.72e-06  1.06e-02     1s
  25   1.53412672e+04  1.57923291e+04  2.06e-04 3.17e-06  7.50e-03     1s
  26   1.53484091e+04  1.57621470e+04  2.00e-04 2.67e-06  6.88e-03     1s
  27   1.53950169e+04  1.57461044e+04  1.66e-04 2.22e-06  5.84e-03     1s
  28   1.54760516e+04  1.57287959e+04  1.12e-04 1.74e-06  4.20e-03     1s
  29   1.55314402e+04  1.57113160e+04  7.68e-05 1.29e-06  2.99e-03     1s
  30   1.55512092e+04  1.57005260e+04  6.46e-05 9.59e-07  2.48e-03     1s
  31   1.55593006e+04  1.56992578e+04  5.98e-05 9.04e-07  2.33e-03     1s
  32   1.55646825e+04  1.56944225e+04  5.64e-05 7.94e-07  2.16e-03     1s
  33   1.56013799e+04  1.56885553e+04  3.56e-05 5.91e-07  1.45e-03     1s
  34   1.56203619e+04  1.56803913e+04  2.54e-05 3.17e-07  9.97e-04     1s
  35   1.56359382e+04  1.56778056e+04  1.74e-05 2.14e-07  6.95e-04     1s
  36   1.56365656e+04  1.56774709e+04  1.71e-05 2.02e-07  6.80e-04     1s
  37   1.56464591e+04  1.56763790e+04  1.20e-05 1.61e-07  4.97e-04     1s
  38   1.56489034e+04  1.56759309e+04  1.09e-05 1.46e-07  4.49e-04     1s
  39   1.56584958e+04  1.56742027e+04  6.11e-06 8.95e-08  2.61e-04     1s
  40   1.56636071e+04  1.56732127e+04  3.76e-06 4.69e-08  1.60e-04     1s
  41   1.56670687e+04  1.56726494e+04  2.05e-06 2.27e-08  9.27e-05     1s
  42   1.56702873e+04  1.56722112e+04  6.42e-07 7.35e-09  3.19e-05     1s
  43   1.56717239e+04  1.56720544e+04  4.90e-08 2.94e-09  5.48e-06     1s
  44   1.56718695e+04  1.56719628e+04  1.80e-08 1.86e-10  1.55e-06     1s
  45   1.56718811e+04  1.56719605e+04  1.54e-08 1.23e-10  1.32e-06     1s
  46   1.56719101e+04  1.56719563e+04  8.88e-09 0.00e+00  7.66e-07     1s
  47   1.56719457e+04  1.56719557e+04  1.48e-09 0.00e+00  1.67e-07     1s
  48   1.56719555e+04  1.56719556e+04  2.89e-11 2.05e-12  5.20e-10     1s

Barrier solved model in 48 iterations and 1.33 seconds
Optimal objective 1.56719555e+04

Crossover log...

       0 DPushes remaining with DInf 9.9931174e-13                 1s

      20 PPushes remaining with PInf 2.0096236e-06                 1s
       0 PPushes remaining with PInf 0.0000000e+00                 1s

  Push phase complete: Pinf 0.0000000e+00, Dinf 2.5393923e-13      1s

Iteration    Objective       Primal Inf.    Dual Inf.      Time
      41    1.5671956e+04   0.000000e+00   0.000000e+00      1s

Solved with barrier
Solved in 41 iterations and 1.37 seconds
Optimal objective  1.567195559e+04
Optimize a model with 1648 rows, 60369 columns and 401772 nonzeros
Coefficient statistics:
  Matrix range     [3e-05, 4e+03]
  Objective range  [7e-05, 2e+03]
  Bounds range     [0e+00, 0e+00]
  RHS range        [1e+00, 4e+04]
Iteration    Objective       Primal Inf.    Dual Inf.      Time
       0    2.2353498e+33   1.543592e+33   2.235350e+03      0s
    2071    1.9309360e+04   0.000000e+00   0.000000e+00      1s

Solved in 2071 iterations and 1.16 seconds
Optimal objective  1.930935980e+04
Optimize a model with 1648 rows, 61153 columns and 414233 nonzeros
Coefficient statistics:
  Matrix range     [2e-05, 4e+03]
  Objective range  [7e-05, 2e+03]
  Bounds range     [0e+00, 0e+00]
  RHS range        [1e+00, 4e+04]
Iteration    Objective       Primal Inf.    Dual Inf.      Time
       0    8.0267538e+33   2.911303e+33   8.026754e+03      0s
    5134    2.3247642e+04   0.000000e+00   0.000000e+00      3s

Solved in 5134 iterations and 2.89 seconds
Optimal objective  2.324764150e+04
Optimize a model with 1648 rows, 61937 columns and 438120 nonzeros
Coefficient statistics:
  Matrix range     [2e-05, 4e+03]
  Objective range  [7e-05, 2e+03]
  Bounds range     [0e+00, 0e+00]
  RHS range        [1e+00, 4e+04]
Iteration    Objective       Primal Inf.    Dual Inf.      Time
       0    4.2142059e+33   6.109841e+33   4.214206e+03      0s
    6298    2.4931127e+04   3.705014e+04   0.000000e+00      5s
    7252    2.4758340e+04   0.000000e+00   0.000000e+00      6s

Solved in 7252 iterations and 6.13 seconds
Optimal objective  2.475834014e+04
Optimize a model with 1648 rows, 62721 columns and 453612 nonzeros
Coefficient statistics:
  Matrix range     [2e-05, 4e+03]
  Objective range  [7e-05, 2e+03]
  Bounds range     [0e+00, 0e+00]
  RHS range        [1e+00, 4e+04]
Iteration    Objective       Primal Inf.    Dual Inf.      Time
       0    5.1592389e+33   4.193237e+33   5.159239e+03      0s
    5963    2.5952639e+04   0.000000e+00   0.000000e+00      5s

Solved in 5963 iterations and 5.15 seconds
Optimal objective  2.595263853e+04
Optimize a model with 1648 rows, 63505 columns and 467981 nonzeros
Coefficient statistics:
  Matrix range     [2e-05, 4e+03]
  Objective range  [7e-05, 2e+03]
  Bounds range     [0e+00, 0e+00]
  RHS range        [1e+00, 4e+04]
Iteration    Objective       Primal Inf.    Dual Inf.      Time
       0    3.8768814e+33   3.676719e+33   3.876881e+03      0s
    4988    2.6612899e+04   0.000000e+00   0.000000e+00      4s

Solved in 4988 iterations and 4.02 seconds
Optimal objective  2.661289861e+04
Optimize a model with 1648 rows, 64289 columns and 482754 nonzeros
Coefficient statistics:
  Matrix range     [2e-05, 4e+03]
  Objective range  [7e-05, 2e+03]
  Bounds range     [0e+00, 0e+00]
  RHS range        [1e+00, 4e+04]
Iteration    Objective       Primal Inf.    Dual Inf.      Time
       0    2.7451236e+33   1.156543e+34   2.745124e+03      0s
    4969    2.7053287e+04   0.000000e+00   0.000000e+00      4s

Solved in 4969 iterations and 3.99 seconds
Optimal objective  2.705328679e+04
Optimize a model with 1648 rows, 65067 columns and 494764 nonzeros
Coefficient statistics:
  Matrix range     [2e-05, 4e+03]
  Objective range  [7e-05, 2e+03]
  Bounds range     [0e+00, 0e+00]
  RHS range        [1e+00, 4e+04]
Iteration    Objective       Primal Inf.    Dual Inf.      Time
       0    2.2942212e+33   1.005904e+34   2.294221e+03      0s
    4979    2.7275133e+04   0.000000e+00   0.000000e+00      4s

Solved in 4979 iterations and 4.29 seconds
Optimal objective  2.727513292e+04
Optimize a model with 1648 rows, 65832 columns and 507004 nonzeros
Coefficient statistics:
  Matrix range     [2e-05, 4e+03]
  Objective range  [7e-05, 2e+03]
  Bounds range     [0e+00, 0e+00]
  RHS range        [1e+00, 4e+04]
Iteration    Objective       Primal Inf.    Dual Inf.      Time
       0    1.0174518e+33   1.262881e+34   1.017452e+03      0s
    6575    2.7392572e+04   0.000000e+00   0.000000e+00      5s

Solved in 6575 iterations and 4.86 seconds
Optimal objective  2.739257210e+04
Optimize a model with 1648 rows, 66587 columns and 518373 nonzeros
Coefficient statistics:
  Matrix range     [2e-05, 4e+03]
  Objective range  [7e-05, 2e+03]
  Bounds range     [0e+00, 0e+00]
  RHS range        [1e+00, 4e+04]
Iteration    Objective       Primal Inf.    Dual Inf.      Time
       0    4.4263690e+32   1.359266e+34   4.426369e+02      0s
    4507    2.7459767e+04   0.000000e+00   0.000000e+00      3s

Solved in 4507 iterations and 2.93 seconds
Optimal objective  2.745976695e+04
Optimize a model with 1648 rows, 67339 columns and 531852 nonzeros
Coefficient statistics:
  Matrix range     [2e-05, 4e+03]
  Objective range  [7e-05, 2e+03]
  Bounds range     [0e+00, 0e+00]
  RHS range        [1e+00, 4e+04]
Iteration    Objective       Primal Inf.    Dual Inf.      Time
       0    1.9916905e+32   5.992097e+33   1.991691e+02      0s
    5096    2.7524590e+04   0.000000e+00   0.000000e+00      4s

Solved in 5096 iterations and 3.68 seconds
Optimal objective  2.752459026e+04
Optimize a model with 1648 rows, 68074 columns and 544159 nonzeros
Coefficient statistics:
  Matrix range     [2e-05, 4e+03]
  Objective range  [7e-05, 2e+03]
  Bounds range     [0e+00, 0e+00]
  RHS range        [1e+00, 4e+04]
Iteration    Objective       Primal Inf.    Dual Inf.      Time
       0    1.8634237e+32   1.587221e+34   1.863424e+02      0s
    3179    2.7557705e+04   0.000000e+00   0.000000e+00      2s

Solved in 3179 iterations and 2.13 seconds
Optimal objective  2.755770528e+04
Optimize a model with 1648 rows, 68795 columns and 557259 nonzeros
Coefficient statistics:
  Matrix range     [2e-05, 4e+03]
  Objective range  [7e-05, 2e+03]
  Bounds range     [0e+00, 0e+00]
  RHS range        [1e+00, 4e+04]
Iteration    Objective       Primal Inf.    Dual Inf.      Time
       0    7.3872165e+31   3.140700e+33   7.387217e+01      0s
    2743    2.7580765e+04   0.000000e+00   0.000000e+00      2s

Solved in 2743 iterations and 1.69 seconds
Optimal objective  2.758076519e+04
Optimize a model with 1648 rows, 69500 columns and 569378 nonzeros
Coefficient statistics:
  Matrix range     [2e-05, 4e+03]
  Objective range  [7e-05, 2e+03]
  Bounds range     [0e+00, 0e+00]
  RHS range        [1e+00, 4e+04]
Iteration    Objective       Primal Inf.    Dual Inf.      Time
       0    4.8840900e+31   7.999012e+33   4.884090e+01      0s
    5235    2.7591884e+04   0.000000e+00   0.000000e+00      5s

Solved in 5235 iterations and 4.53 seconds
Optimal objective  2.759188354e+04
Optimize a model with 1648 rows, 70174 columns and 581562 nonzeros
Coefficient statistics:
  Matrix range     [2e-05, 4e+03]
  Objective range  [7e-05, 2e+03]
  Bounds range     [0e+00, 0e+00]
  RHS range        [1e+00, 4e+04]
Iteration    Objective       Primal Inf.    Dual Inf.      Time
       0    1.9245449e+31   4.718230e+33   1.924545e+01      0s
    2035    2.7600140e+04   0.000000e+00   0.000000e+00      1s

Solved in 2035 iterations and 1.39 seconds
Optimal objective  2.760013976e+04
Optimize a model with 1648 rows, 70814 columns and 593068 nonzeros
Coefficient statistics:
  Matrix range     [2e-05, 4e+03]
  Objective range  [7e-05, 2e+03]
  Bounds range     [0e+00, 0e+00]
  RHS range        [1e+00, 4e+04]
Iteration    Objective       Primal Inf.    Dual Inf.      Time
       0    1.0529444e+31   2.460227e+33   1.052944e+01      0s
    2436    2.7602828e+04   0.000000e+00   0.000000e+00      2s

Solved in 2436 iterations and 1.78 seconds
Optimal objective  2.760282795e+04
Optimize a model with 1648 rows, 71389 columns and 603386 nonzeros
Coefficient statistics:
  Matrix range     [2e-05, 4e+03]
  Objective range  [7e-05, 2e+03]
  Bounds range     [0e+00, 0e+00]
  RHS range        [1e+00, 4e+04]
Iteration    Objective       Primal Inf.    Dual Inf.      Time
       0    3.1488861e+30   1.058094e+33   3.148886e+00      0s
    1241    2.7604288e+04   0.000000e+00   0.000000e+00      1s

Solved in 1241 iterations and 0.95 seconds
Optimal objective  2.760428790e+04
Optimize a model with 1648 rows, 71913 columns and 612552 nonzeros
Coefficient statistics:
  Matrix range     [2e-05, 4e+03]
  Objective range  [7e-05, 2e+03]
  Bounds range     [0e+00, 0e+00]
  RHS range        [1e+00, 4e+04]
Iteration    Objective       Primal Inf.    Dual Inf.      Time
       0    1.2186397e+30   1.282861e+33   1.218640e+00      0s
     985    2.7604642e+04   0.000000e+00   0.000000e+00      1s

Solved in 985 iterations and 0.74 seconds
Optimal objective  2.760464244e+04
Optimize a model with 1648 rows, 72386 columns and 620664 nonzeros
Coefficient statistics:
  Matrix range     [2e-05, 4e+03]
  Objective range  [7e-05, 2e+03]
  Bounds range     [0e+00, 0e+00]
  RHS range        [1e+00, 4e+04]
Iteration    Objective       Primal Inf.    Dual Inf.      Time
       0    1.8085526e+29   5.010351e+32   1.808553e-01      0s
     309    2.7604711e+04   0.000000e+00   0.000000e+00      0s

Solved in 309 iterations and 0.27 seconds
Optimal objective  2.760471089e+04
Optimize a model with 1648 rows, 72853 columns and 628409 nonzeros
Coefficient statistics:
  Matrix range     [2e-05, 4e+03]
  Objective range  [7e-05, 2e+03]
  Bounds range     [0e+00, 0e+00]
  RHS range        [1e+00, 4e+04]
Iteration    Objective       Primal Inf.    Dual Inf.      Time
       0    2.9610007e+28   1.432536e+32   2.961001e-02      0s
     100    2.7604722e+04   0.000000e+00   0.000000e+00      0s

Solved in 100 iterations and 0.12 seconds
Optimal objective  2.760472197e+04
Optimize a model with 1648 rows, 73294 columns and 635829 nonzeros
Coefficient statistics:
  Matrix range     [2e-05, 4e+03]
  Objective range  [7e-05, 2e+03]
  Bounds range     [0e+00, 0e+00]
  RHS range        [1e+00, 4e+04]
Iteration    Objective       Primal Inf.    Dual Inf.      Time
       0    1.6264888e+27   6.318631e+31   1.626489e-03      0s
      37    2.7604722e+04   0.000000e+00   0.000000e+00      0s

Solved in 37 iterations and 0.09 seconds
Optimal objective  2.760472248e+04
